SumColouring/JavaBacktracker/RandomInstances/10_0.25_1.col
c File: instances/10_0.25_1.col
c
c Description: Random graph of size 10 vertices and P(0.25) of edges between any two vertices.
p col 10 45
e 1 8
e 2 7
e 3 4
e 3 5
e 3 8
e 3 10
e 4 9
e 5 9
e 5 10
e 6 7
e 6 9
e 8 9
e 9 10